p cnf 1540 1302
e 1 2 3 4 5 6 7 8 9 10 11 12 13 14 15 16 17 18 19 20 21 22 23 24 25 26 27 28 29 30 31 32 33 34 35 36 37 38 39 40 41 42 43 44 45 46 47 48 49 50 51 52 53 54 55 56 57 58 59 60 61 62 63 64 65 66 67 68 69 70 71 72 73 74 75 76 77 78 79 80 81 82 83 84 85 86 87 88 89 90 91 92 93 94 95 96 97 98 99 100 101 102 103 104 105 106 107 108 109 110 111 112 113 114 115 116 117 118 119 120 121 122 123 124 125 126 127 128 129 130 131 132 133 134 135 136 137 138 139 140 141 142 143 144 145 146 147 148 149 150 151 152 153 154 155 156 157 158 159 160 161 162 163 164 165 166 167 168 169 170 171 172 173 174 175 176 177 178 179 180 181 182 183 184 185 186 187 188 189 190 191 192 193 194 195 196 197 198 199 200 201 202 203 204 205 206 207 208 209 210 211 212 213 214 215 216 217 218 219 220 221 222 223 224 225 226 227 228 229 230 231 232 233 234 235 236 237 238 239 240 241 242 243 244 245 246 247 248 249 250 251 252 253 254 255 256 257 258 259 260 261 262 263 264 265 266 267 268 269 270 271 272 273 274 275 276 277 278 279 280 281 282 283 284 285 286 287 288 289 290 291 292 293 294 295 296 297 298 299 300 301 302 303 304 305 306 307 308 309 310 311 312 313 314 315 316 317 318 319 320 321 322 323 324 325 326 327 328 329 330 331 332 333 334 335 336 337 338 339 340 341 342 343 344 345 346 347 348 349 350 351 352 353 354 355 356 357 358 359 360 361 362 363 364 365 366 367 368 369 370 371 372 373 374 375 376 377 378 379 380 381 382 383 384 385 386 387 388 389 390 391 392 393 394 395 396 397 398 399 400 401 402 403 404 405 406 407 408 409 410 411 412 413 414 415 416 417 418 419 420 421 422 423 424 425 426 427 428 429 430 431 432 433 434 435 436 437 438 439 440 441 442 443 444 445 446 447 448 449 450 451 452 453 454 455 456 457 458 459 460 461 462 463 464 465 466 467 468 469 470 471 472 473 474 475 476 477 478 479 480 481 482 483 484 485 486 487 488 489 490 491 492 493 494 495 496 497 498 499 500 501 502 503 504 505 506 507 508 509 510 511 512 513 514 515 516 517 518 519 520 521 522 523 524 525 526 527 528 529 530 531 532 533 534 535 536 537 538 539 540 541 542 543 544 545 546 547 548 549 550 551 552 553 554 555 556 557 558 559 560 561 562 563 564 565 566 567 568 569 570 571 572 573 574 575 576 577 578 579 580 581 582 583 584 585 586 587 588 589 590 591 592 593 594 595 596 597 598 599 600 601 602 603 604 605 606 607 608 609 610 611 612 613 614 615 616 617 618 619 620 621 622 623 624 625 626 627 628 629 630 631 632 633 634 635 636 637 638 639 640 641 642 643 644 645 646 647 648 649 650 651 652 653 654 655 656 657 658 659 660 661 662 663 664 665 666 667 668 669 670 671 672 673 674 675 676 677 678 679 680 681 682 683 684 685 686 687 688 689 690 691 692 693 694 695 696 697 698 699 700 701 702 703 704 705 706 707 708 709 710 711 712 713 714 715 716 717 718 719 720 721 722 723 724 725 726 727 728 729 730 731 732 733 734 735 736 737 738 739 740 741 742 743 744 745 746 747 748 749 750 751 752 753 754 755 756 757 758 759 760 761 762 763 764 765 766 767 768 769 770 771 772 773 774 775 776 777 778 779 780 781 782 783 784 785 786 787 788 789 790 791 792 793 794 795 796 797 798 799 800 801 802 803 804 805 806 807 808 809 810 811 812 813 814 815 816 817 818 819 820 821 822 823 824 825 826 827 828 829 0
-1 0
-2 0
-3 0
-4 0
-5 0
-6 0
-7 0
-8 0
-9 0
-10 0
-11 0
-12 0
-13 0
-14 0
-15 0
-16 0
-17 0
-18 0
-19 0
-20 0
-21 0
-22 0
-23 0
-24 0
-25 0
-26 0
-27 0
-28 0
-29 0
-30 0
-31 0
-32 0
-33 0
-34 0
-35 0
-36 0
-37 0
-38 0
-39 0
-40 0
-41 0
-42 0
-43 0
-44 0
-45 0
-46 0
-47 0
-48 0
-49 0
-50 0
-51 0
-52 0
-53 0
-54 0
-55 0
-56 0
-57 0
-58 0
-59 0
-60 0
-61 0
-62 0
-63 0
-64 0
-65 0
-66 0
-67 0
-68 0
-69 0
-70 0
-71 0
-72 0
-73 0
-74 0
-75 0
-76 0
-77 0
-78 0
-79 0
-80 0
-81 0
-82 0
-83 0
-84 0
-85 0
-86 0
-87 0
-88 0
-89 0
-90 0
-91 0
-92 0
-93 0
-94 0
-95 0
-96 0
-97 0
-98 0
414 -429 0
425 -429 0
-414 -425 429 0
417 -430 0
429 -430 0
-417 -429 430 0
409 -431 0
430 -431 0
-409 -430 431 0
423 -432 0
431 -432 0
-423 -431 432 0
413 -433 0
426 -433 0
-413 -426 433 0
417 -434 0
433 -434 0
-417 -433 434 0
409 -435 0
434 -435 0
-409 -434 435 0
423 -436 0
435 -436 0
-423 -435 436 0
413 -437 0
425 -437 0
-413 -425 437 0
418 -438 0
437 -438 0
-418 -437 438 0
409 -439 0
438 -439 0
-409 -438 439 0
423 -440 0
439 -440 0
-423 -439 440 0
417 -441 0
437 -441 0
-417 -437 441 0
409 -442 0
441 -442 0
-409 -441 442 0
424 -443 0
442 -443 0
-424 -442 443 0
410 -444 0
441 -444 0
-410 -441 444 0
423 -445 0
444 -445 0
-423 -444 445 0
-443 -446 0
-445 -446 0
443 445 446 0
-440 -447 0
446 -447 0
440 -446 447 0
-436 -448 0
447 -448 0
436 -447 448 0
-432 -449 0
448 -449 0
432 -448 449 0
-100 -450 0
-102 -450 0
100 102 450 0
-104 -451 0
450 -451 0
104 -450 451 0
-106 -452 0
451 -452 0
106 -451 452 0
-108 -453 0
452 -453 0
108 -452 453 0
-110 -454 0
453 -454 0
110 -453 454 0
-112 -455 0
454 -455 0
112 -454 455 0
-113 -456 0
455 -456 0
113 -455 456 0
-116 -457 0
456 -457 0
116 -456 457 0
-118 -458 0
457 -458 0
118 -457 458 0
-118 -459 0
-114 -459 0
118 114 459 0
402 -460 0
70 -460 0
-402 -70 460 0
404 -461 0
69 -461 0
-404 -69 461 0
-460 -462 0
-461 -462 0
460 461 462 0
-113 -463 0
462 -463 0
113 -462 463 0
-459 -464 0
-463 -464 0
459 463 464 0
-428 -465 0
-464 -465 0
428 464 465 0
117 -466 0
113 -466 0
-117 -113 466 0
-401 -467 0
-69 -467 0
401 69 467 0
-403 -468 0
-70 -468 0
403 70 468 0
-467 -469 0
-468 -469 0
467 468 469 0
114 -470 0
469 -470 0
-114 -469 470 0
-466 -471 0
-470 -471 0
466 470 471 0
-427 -472 0
471 -472 0
427 -471 472 0
-465 -473 0
-472 -473 0
465 472 473 0
381 -474 0
383 -474 0
-381 -383 474 0
-113 -475 0
-474 -475 0
113 474 475 0
99 -476 0
-475 -476 0
-99 475 476 0
116 -477 0
476 -477 0
-116 -476 477 0
-113 -478 0
-100 -478 0
113 100 478 0
-108 -479 0
478 -479 0
108 -478 479 0
-116 -480 0
479 -480 0
116 -479 480 0
-104 -481 0
480 -481 0
104 -480 481 0
-477 -482 0
481 -482 0
477 -481 482 0
114 -483 0
99 -483 0
-114 -99 483 0
107 -484 0
483 -484 0
-107 -483 484 0
115 -485 0
484 -485 0
-115 -484 485 0
103 -486 0
485 -486 0
-103 -485 486 0
-377 -487 0
-105 -487 0
377 105 487 0
379 -488 0
-487 -488 0
-379 487 488 0
60 -489 0
488 -489 0
-60 -488 489 0
113 -490 0
100 -490 0
-113 -100 490 0
107 -491 0
490 -491 0
-107 -490 491 0
115 -492 0
491 -492 0
-115 -491 492 0
103 -493 0
492 -493 0
-103 -492 493 0
489 -494 0
493 -494 0
-489 -493 494 0
-114 -495 0
-99 -495 0
114 99 495 0
-108 -496 0
495 -496 0
108 -495 496 0
-116 -497 0
496 -497 0
116 -496 497 0
-104 -498 0
497 -498 0
104 -497 498 0
-378 -499 0
-116 -499 0
378 116 499 0
379 -500 0
-499 -500 0
-379 499 500 0
-114 -501 0
-100 -501 0
114 100 501 0
-107 -502 0
501 -502 0
107 -501 502 0
-116 -503 0
502 -503 0
116 -502 503 0
-104 -504 0
503 -504 0
104 -503 504 0
-500 -505 0
504 -505 0
500 -504 505 0
113 -506 0
99 -506 0
-113 -99 506 0
108 -507 0
506 -507 0
-108 -506 507 0
115 -508 0
507 -508 0
-115 -507 508 0
103 -509 0
508 -509 0
-103 -508 509 0
116 -510 0
377 -510 0
-116 -377 510 0
379 -511 0
510 -511 0
-379 -510 511 0
107 -512 0
506 -512 0
-107 -506 512 0
116 -513 0
512 -513 0
-116 -512 513 0
103 -514 0
513 -514 0
-103 -513 514 0
511 -515 0
514 -515 0
-511 -514 515 0
-108 -516 0
501 -516 0
108 -501 516 0
-115 -517 0
516 -517 0
115 -516 517 0
-104 -518 0
517 -518 0
104 -517 518 0
24 -519 0
-518 -519 0
-24 518 519 0
-515 -520 0
-519 -520 0
515 519 520 0
-509 -521 0
520 -521 0
509 -520 521 0
-505 -522 0
-521 -522 0
505 521 522 0
-498 -523 0
522 -523 0
498 -522 523 0
-494 -524 0
-523 -524 0
494 523 524 0
-486 -525 0
524 -525 0
486 -524 525 0
-482 -526 0
-525 -526 0
482 525 526 0
376 -527 0
526 -527 0
-376 -526 527 0
-426 -528 0
-527 -528 0
426 527 528 0
-382 -529 0
-384 -529 0
382 384 529 0
114 -530 0
-529 -530 0
-114 529 530 0
-100 -531 0
-530 -531 0
100 530 531 0
-115 -532 0
531 -532 0
115 -531 532 0
-532 -533 0
486 -533 0
532 -486 533 0
378 -534 0
106 -534 0
-378 -106 534 0
-380 -535 0
-534 -535 0
380 534 535 0
-59 -536 0
535 -536 0
59 -535 536 0
536 -537 0
498 -537 0
-536 -498 537 0
377 -538 0
115 -538 0
-377 -115 538 0
-380 -539 0
-538 -539 0
380 538 539 0
-539 -540 0
509 -540 0
539 -509 540 0
-115 -541 0
-378 -541 0
115 378 541 0
-380 -542 0
541 -542 0
380 -541 542 0
542 -543 0
518 -543 0
-542 -518 543 0
-23 -544 0
-514 -544 0
23 514 544 0
-543 -545 0
-544 -545 0
543 544 545 0
-504 -546 0
545 -546 0
504 -545 546 0
-540 -547 0
-546 -547 0
540 546 547 0
-493 -548 0
547 -548 0
493 -547 548 0
-537 -549 0
-548 -549 0
537 548 549 0
-481 -550 0
549 -550 0
481 -549 550 0
-533 -551 0
-550 -551 0
533 550 551 0
-375 -552 0
551 -552 0
375 -551 552 0
-425 -553 0
552 -553 0
425 -552 553 0
-528 -554 0
-553 -554 0
528 553 554 0
114 -555 0
476 -555 0
-114 -476 555 0
-555 -556 0
481 -556 0
555 -481 556 0
64 -557 0
493 -557 0
-64 -493 557 0
114 -558 0
377 -558 0
-114 -377 558 0
-380 -559 0
-558 -559 0
380 558 559 0
559 -560 0
504 -560 0
-559 -504 560 0
-559 -561 0
514 -561 0
559 -514 561 0
20 -562 0
-518 -562 0
-20 518 562 0
-561 -563 0
-562 -563 0
561 562 563 0
-509 -564 0
563 -564 0
509 -563 564 0
-560 -565 0
-564 -565 0
560 564 565 0
-498 -566 0
565 -566 0
498 -565 566 0
-557 -567 0
-566 -567 0
557 566 567 0
-486 -568 0
567 -568 0
486 -567 568 0
-556 -569 0
-568 -569 0
556 568 569 0
-375 -570 0
-569 -570 0
375 569 570 0
423 -571 0
-570 -571 0
-423 570 571 0
-113 -572 0
531 -572 0
113 -531 572 0
-572 -573 0
486 -573 0
572 -486 573 0
-63 -574 0
498 -574 0
63 -498 574 0
-113 -575 0
-378 -575 0
113 378 575 0
379 -576 0
-575 -576 0
-379 575 576 0
576 -577 0
509 -577 0
-576 -509 577 0
-576 -578 0
518 -578 0
576 -518 578 0
-19 -579 0
-514 -579 0
19 514 579 0
-578 -580 0
-579 -580 0
578 579 580 0
-504 -581 0
580 -581 0
504 -580 581 0
-577 -582 0
-581 -582 0
577 581 582 0
-493 -583 0
582 -583 0
493 -582 583 0
-574 -584 0
-583 -584 0
574 583 584 0
-481 -585 0
584 -585 0
481 -584 585 0
-573 -586 0
-585 -586 0
573 585 586 0
376 -587 0
-586 -587 0
-376 586 587 0
424 -588 0
587 -588 0
-424 -587 588 0
-571 -589 0
-588 -589 0
571 588 589 0
-112 -590 0
-114 -590 0
112 114 590 0
394 -591 0
70 -591 0
-394 -70 591 0
396 -592 0
69 -592 0
-396 -69 592 0
-591 -593 0
-592 -593 0
591 592 593 0
-113 -594 0
593 -594 0
113 -593 594 0
-590 -595 0
-594 -595 0
590 594 595 0
-422 -596 0
-595 -596 0
422 595 596 0
111 -597 0
113 -597 0
-111 -113 597 0
-393 -598 0
-69 -598 0
393 69 598 0
-395 -599 0
-70 -599 0
395 70 599 0
-598 -600 0
-599 -600 0
598 599 600 0
114 -601 0
600 -601 0
-114 -600 601 0
-597 -602 0
-601 -602 0
597 601 602 0
-421 -603 0
602 -603 0
421 -602 603 0
-596 -604 0
-603 -604 0
596 603 604 0
-110 -605 0
-114 -605 0
110 114 605 0
406 -606 0
70 -606 0
-406 -70 606 0
408 -607 0
69 -607 0
-408 -69 607 0
-606 -608 0
-607 -608 0
606 607 608 0
-113 -609 0
608 -609 0
113 -608 609 0
-605 -610 0
-609 -610 0
605 609 610 0
-420 -611 0
-610 -611 0
420 610 611 0
109 -612 0
113 -612 0
-109 -113 612 0
-405 -613 0
-69 -613 0
405 69 613 0
-407 -614 0
-70 -614 0
407 70 614 0
-613 -615 0
-614 -615 0
613 614 615 0
114 -616 0
615 -616 0
-114 -615 616 0
-612 -617 0
-616 -617 0
612 616 617 0
-419 -618 0
617 -618 0
419 -617 618 0
-611 -619 0
-618 -619 0
611 618 619 0
108 -620 0
476 -620 0
-108 -476 620 0
620 -621 0
486 -621 0
-620 -486 621 0
58 -622 0
488 -622 0
-58 -488 622 0
-622 -623 0
498 -623 0
622 -498 623 0
108 -624 0
377 -624 0
-108 -377 624 0
379 -625 0
624 -625 0
-379 -624 625 0
625 -626 0
509 -626 0
-625 -509 626 0
18 -627 0
-504 -627 0
-18 504 627 0
-626 -628 0
-627 -628 0
626 627 628 0
-493 -629 0
628 -629 0
493 -628 629 0
-623 -630 0
-629 -630 0
623 629 630 0
-481 -631 0
630 -631 0
481 -630 631 0
-621 -632 0
-631 -632 0
621 631 632 0
376 -633 0
-632 -633 0
-376 632 633 0
-418 -634 0
-633 -634 0
418 633 634 0
-107 -635 0
531 -635 0
107 -531 635 0
635 -636 0
481 -636 0
-635 -481 636 0
-57 -637 0
535 -637 0
57 -535 637 0
-637 -638 0
493 -638 0
637 -493 638 0
-107 -639 0
-378 -639 0
107 378 639 0
-380 -640 0
639 -640 0
380 -639 640 0
640 -641 0
504 -641 0
-640 -504 641 0
-17 -642 0
-509 -642 0
17 509 642 0
-641 -643 0
-642 -643 0
641 642 643 0
-498 -644 0
643 -644 0
498 -643 644 0
-638 -645 0
-644 -645 0
638 644 645 0
-486 -646 0
645 -646 0
486 -645 646 0
-636 -647 0
-646 -647 0
636 646 647 0
-375 -648 0
-647 -648 0
375 647 648 0
-417 -649 0
648 -649 0
417 -648 649 0
-634 -650 0
-649 -650 0
634 649 650 0
-106 -651 0
-114 -651 0
106 114 651 0
398 -652 0
70 -652 0
-398 -70 652 0
400 -653 0
69 -653 0
-400 -69 653 0
-652 -654 0
-653 -654 0
652 653 654 0
-113 -655 0
654 -655 0
113 -654 655 0
-651 -656 0
-655 -656 0
651 655 656 0
-416 -657 0
-656 -657 0
416 656 657 0
105 -658 0
113 -658 0
-105 -113 658 0
-397 -659 0
-69 -659 0
397 69 659 0
-399 -660 0
-70 -660 0
399 70 660 0
-659 -661 0
-660 -661 0
659 660 661 0
114 -662 0
661 -662 0
-114 -661 662 0
-658 -663 0
-662 -663 0
658 662 663 0
-415 -664 0
663 -664 0
415 -663 664 0
-657 -665 0
-664 -665 0
657 664 665 0
62 -666 0
488 -666 0
-62 -488 666 0
666 -667 0
493 -667 0
-666 -493 667 0
104 -668 0
377 -668 0
-104 -377 668 0
379 -669 0
668 -669 0
-379 -668 669 0
-669 -670 0
504 -670 0
669 -504 670 0
-378 -671 0
-104 -671 0
378 104 671 0
379 -672 0
-671 -672 0
-379 671 672 0
672 -673 0
514 -673 0
-672 -514 673 0
26 -674 0
-518 -674 0
-26 518 674 0
-673 -675 0
-674 -675 0
673 674 675 0
-509 -676 0
675 -676 0
509 -675 676 0
-670 -677 0
-676 -677 0
670 676 677 0
-498 -678 0
677 -678 0
498 -677 678 0
-667 -679 0
-678 -679 0
667 678 679 0
-481 -680 0
-679 -680 0
481 679 680 0
376 -681 0
680 -681 0
-376 -680 681 0
-414 -682 0
-681 -682 0
414 681 682 0
-61 -683 0
535 -683 0
61 -535 683 0
683 -684 0
498 -684 0
-683 -498 684 0
-103 -685 0
-378 -685 0
103 378 685 0
-380 -686 0
685 -686 0
380 -685 686 0
-686 -687 0
509 -687 0
686 -509 687 0
377 -688 0
103 -688 0
-377 -103 688 0
-380 -689 0
-688 -689 0
380 688 689 0
689 -690 0
518 -690 0
-689 -518 690 0
-25 -691 0
-514 -691 0
25 514 691 0
-690 -692 0
-691 -692 0
690 691 692 0
-504 -693 0
692 -693 0
504 -692 693 0
-687 -694 0
-693 -694 0
687 693 694 0
-493 -695 0
694 -695 0
493 -694 695 0
-684 -696 0
-695 -696 0
684 695 696 0
-486 -697 0
-696 -697 0
486 696 697 0
-375 -698 0
697 -698 0
375 -697 698 0
-413 -699 0
698 -699 0
413 -698 699 0
-682 -700 0
-699 -700 0
682 699 700 0
102 -701 0
113 -701 0
-102 -113 701 0
382 -702 0
383 -702 0
-382 -383 702 0
114 -703 0
702 -703 0
-114 -702 703 0
-701 -704 0
-703 -704 0
701 703 704 0
376 -705 0
-704 -705 0
-376 704 705 0
-412 -706 0
-705 -706 0
412 705 706 0
-101 -707 0
-114 -707 0
101 114 707 0
-381 -708 0
-384 -708 0
381 384 708 0
-113 -709 0
708 -709 0
113 -708 709 0
-707 -710 0
-709 -710 0
707 709 710 0
-375 -711 0
-710 -711 0
375 710 711 0
-411 -712 0
711 -712 0
411 -711 712 0
-706 -713 0
-712 -713 0
706 712 713 0
531 -714 0
481 -714 0
-531 -481 714 0
66 -715 0
493 -715 0
-66 -493 715 0
100 -716 0
377 -716 0
-100 -377 716 0
379 -717 0
716 -717 0
-379 -716 717 0
-717 -718 0
504 -718 0
717 -504 718 0
717 -719 0
514 -719 0
-717 -514 719 0
22 -720 0
-518 -720 0
-22 518 720 0
-719 -721 0
-720 -721 0
719 720 721 0
-509 -722 0
721 -722 0
509 -721 722 0
-718 -723 0
-722 -723 0
718 722 723 0
-498 -724 0
723 -724 0
498 -723 724 0
-715 -725 0
-724 -725 0
715 724 725 0
-486 -726 0
725 -726 0
486 -725 726 0
-714 -727 0
-726 -727 0
714 726 727 0
376 -728 0
727 -728 0
-376 -727 728 0
-410 -729 0
-728 -729 0
410 728 729 0
476 -730 0
486 -730 0
-476 -486 730 0
-65 -731 0
498 -731 0
65 -498 731 0
-99 -732 0
-378 -732 0
99 378 732 0
-380 -733 0
732 -733 0
380 -732 733 0
-733 -734 0
509 -734 0
733 -509 734 0
733 -735 0
518 -735 0
-733 -518 735 0
-21 -736 0
-514 -736 0
21 514 736 0
-735 -737 0
-736 -737 0
735 736 737 0
-504 -738 0
737 -738 0
504 -737 738 0
-734 -739 0
-738 -739 0
734 738 739 0
-493 -740 0
739 -740 0
493 -739 740 0
-731 -741 0
-740 -741 0
731 740 741 0
-481 -742 0
741 -742 0
481 -741 742 0
-730 -743 0
-742 -743 0
730 742 743 0
-375 -744 0
743 -744 0
375 -743 744 0
-409 -745 0
744 -745 0
409 -744 745 0
-729 -746 0
-745 -746 0
729 745 746 0
-713 -747 0
-746 -747 0
713 746 747 0
-700 -748 0
747 -748 0
700 -747 748 0
-665 -749 0
748 -749 0
665 -748 749 0
-650 -750 0
749 -750 0
650 -749 750 0
-619 -751 0
750 -751 0
619 -750 751 0
-604 -752 0
751 -752 0
604 -751 752 0
589 -753 0
752 -753 0
-589 -752 753 0
-554 -754 0
753 -754 0
554 -753 754 0
-473 -755 0
754 -755 0
473 -754 755 0
458 -756 0
755 -756 0
-458 -755 756 0
449 -757 0
756 -757 0
-449 -756 757 0
-413 -758 0
-426 -758 0
413 426 758 0
-418 -759 0
758 -759 0
418 -758 759 0
-410 -760 0
759 -760 0
410 -759 760 0
-424 -761 0
760 -761 0
424 -760 761 0
-414 -762 0
-425 -762 0
414 425 762 0
-418 -763 0
762 -763 0
418 -762 763 0
-410 -764 0
763 -764 0
410 -763 764 0
-424 -765 0
764 -765 0
424 -764 765 0
-414 -766 0
-426 -766 0
414 426 766 0
-417 -767 0
766 -767 0
417 -766 767 0
-410 -768 0
767 -768 0
410 -767 768 0
-424 -769 0
768 -769 0
424 -768 769 0
-418 -770 0
766 -770 0
418 -766 770 0
-410 -771 0
770 -771 0
410 -770 771 0
-423 -772 0
771 -772 0
423 -771 772 0
-409 -773 0
770 -773 0
409 -770 773 0
-424 -774 0
773 -774 0
424 -773 774 0
-772 -775 0
-774 -775 0
772 774 775 0
-769 -776 0
775 -776 0
769 -775 776 0
-765 -777 0
776 -777 0
765 -776 777 0
-761 -778 0
777 -778 0
761 -777 778 0
99 -779 0
101 -779 0
-99 -101 779 0
103 -780 0
779 -780 0
-103 -779 780 0
105 -781 0
780 -781 0
-105 -780 781 0
107 -782 0
781 -782 0
-107 -781 782 0
109 -783 0
782 -783 0
-109 -782 783 0
111 -784 0
783 -784 0
-111 -783 784 0
114 -785 0
784 -785 0
-114 -784 785 0
115 -786 0
785 -786 0
-115 -785 786 0
117 -787 0
786 -787 0
-117 -786 787 0
427 -788 0
-471 -788 0
-427 471 788 0
428 -789 0
464 -789 0
-428 -464 789 0
-788 -790 0
-789 -790 0
788 789 790 0
425 -791 0
-552 -791 0
-425 552 791 0
426 -792 0
527 -792 0
-426 -527 792 0
-791 -793 0
-792 -793 0
791 792 793 0
-424 -794 0
-587 -794 0
424 587 794 0
-423 -795 0
570 -795 0
423 -570 795 0
-794 -796 0
-795 -796 0
794 795 796 0
421 -797 0
-602 -797 0
-421 602 797 0
422 -798 0
595 -798 0
-422 -595 798 0
-797 -799 0
-798 -799 0
797 798 799 0
419 -800 0
-617 -800 0
-419 617 800 0
420 -801 0
610 -801 0
-420 -610 801 0
-800 -802 0
-801 -802 0
800 801 802 0
417 -803 0
-648 -803 0
-417 648 803 0
418 -804 0
633 -804 0
-418 -633 804 0
-803 -805 0
-804 -805 0
803 804 805 0
415 -806 0
-663 -806 0
-415 663 806 0
416 -807 0
656 -807 0
-416 -656 807 0
-806 -808 0
-807 -808 0
806 807 808 0
413 -809 0
-698 -809 0
-413 698 809 0
414 -810 0
681 -810 0
-414 -681 810 0
-809 -811 0
-810 -811 0
809 810 811 0
411 -812 0
-711 -812 0
-411 711 812 0
412 -813 0
705 -813 0
-412 -705 813 0
-812 -814 0
-813 -814 0
812 813 814 0
409 -815 0
-744 -815 0
-409 744 815 0
410 -816 0
728 -816 0
-410 -728 816 0
-815 -817 0
-816 -817 0
815 816 817 0
-814 -818 0
-817 -818 0
814 817 818 0
-811 -819 0
818 -819 0
811 -818 819 0
-808 -820 0
819 -820 0
808 -819 820 0
-805 -821 0
820 -821 0
805 -820 821 0
-802 -822 0
821 -822 0
802 -821 822 0
-799 -823 0
822 -823 0
799 -822 823 0
796 -824 0
823 -824 0
-796 -823 824 0
-793 -825 0
824 -825 0
793 -824 825 0
-790 -826 0
825 -826 0
790 -825 826 0
787 -827 0
826 -827 0
-787 -826 827 0
778 -828 0
827 -828 0
-778 -827 828 0
757 -829 0
828 -829 0
-757 -828 829 0
829 0